c Barbasi and Albert's preferential attachment model G(n, d), whith n = 10, d = 5
c d is the min degree parameter
c
c seed id 1360866350
c
p edge 10 25
e 1 6
e 1 8
e 2 6
e 2 7
e 3 9
e 3 10
e 3 6
e 3 7
e 4 9
e 4 10
e 4 6
e 4 7
e 4 8
e 5 10
e 5 6
e 5 7
e 5 8
e 6 7
e 6 8
e 6 9
e 6 10
e 7 8
e 7 9
e 8 9
e 8 10
